100 1297837745
85 66 82 52 65 34 92 33 2 94 45 71 37 73 44 50 26 27 11 25 100 38 35 56 79 55 87 80 31 89 68 9 22 48 5 32 83 58 49 15 84 64 4 67 17 42 21 16 75 8 46 53 57 28 96 81 3 6 14 41 43 20 12 29 86 98 40 47 39 60 36 69 30 90 74 1 95 72 78 70 61 18 59 99 10 76 63 62 13 93 97 7 54 23 19 51 77 24 91 88 
